results_rootrelaxation/bin012_090_017.srr.sol
solution status: optimal solution found
objective value:                                   35
_var283_                            0.193726937269378 	(obj:5)
_var692_                            0.276752767527673 	(obj:3)
_var701_                            0.256457564575645 	(obj:4)
_var706_                              0.3819188191882 	(obj:4)
_var710_                            0.463099630996307 	(obj:3)
_var712_                           0.0608856088560806 	(obj:5)
_var723_                           0.0369003690036923 	(obj:4)
_var732_                            0.107011070110704 	(obj:3)
_var735_                             0.27859778597786 	(obj:4)
_var736_                           0.0332103321033155 	(obj:3)
_var753_                            0.160516605166047 	(obj:3)
_var755_                             0.27859778597786 	(obj:3)
_var757_                            0.267527675276749 	(obj:4)
_var759_                             0.24169741697417 	(obj:4)
_var769_                            0.191881918819193 	(obj:3)
_var771_                            0.260147601476019 	(obj:3)
_var772_                            0.177121771217708 	(obj:4)
_var777_                            0.178966789667899 	(obj:3)
_var778_                            0.256457564575641 	(obj:4)
_var780_                            0.125461254612546 	(obj:3)
_var781_                            0.284132841328416 	(obj:3)
_var786_                            0.171586715867157 	(obj:3)
_var787_                            0.429889298892989 	(obj:3)
_var788_                           0.0719557195571913 	(obj:3)
_var789_                           0.0461254612546204 	(obj:4)
_var791_                           0.0996309963099615 	(obj:3)
_var796_                            0.597785977859783 	(obj:3)
_var799_                            0.267527675276746 	(obj:2)
_var804_                            0.112546125461257 	(obj:3)
_var805_                          0.00184501845018614 	(obj:4)
_var806_                            0.370848708487085 	(obj:2)
_var808_                            0.123616236162364 	(obj:3)
_var811_                            0.119926199261988 	(obj:5)
_var814_                            0.225092250922512 	(obj:3)
_var815_                            0.404059040590405 	(obj:2)
_var819_                            0.169741697416978 	(obj:3)
_var824_                            0.142066420664204 	(obj:3)
_var825_                            0.221402214022137 	(obj:4)
_var830_                            0.278597785977862 	(obj:2)
_var832_                            0.153136531365307 	(obj:3)
_var834_                             0.45387453874539 	(obj:3)
_var835_                            0.130996309963107 	(obj:3)
_var838_                            0.439114391143906 	(obj:4)
_var839_                            0.509225092250928 	(obj:3)
_var840_                            0.223247232472324 	(obj:3)
_var843_                           0.0498154981549942 	(obj:3)
_var844_                           0.0295202952029545 	(obj:5)
_var847_                            0.027675276752766 	(obj:4)
_var848_                            0.214022140221395 	(obj:3)
_var850_                            0.119926199261988 	(obj:2)
_var851_                            0.178966789667894 	(obj:3)
_var852_                           0.0959409594095924 	(obj:3)
_var859_                          0.00922509225092499 	(obj:3)
