results_rootrelaxation/bin012_090_017.srr.log
SCIP version 8.0.3.5 [precision: 8 byte] [memory: block] [mode: optimized] [LP solver: Soplex 6.0.1.3] [GitHash: 438792519e]
Copyright (c) 2002-2023 Zuse Institute Berlin (ZIB)

External libraries: 
  Readline 8.1         GNU library for command line editing (gnu.org/s/readline)
  Soplex 6.0.1.3       Linear Programming Solver developed at Zuse Institute Berlin (soplex.zib.de) [GitHash: 713be0fe]
  CppAD 20180000.0     Algorithmic Differentiation of C++ algorithms developed by B. Bell (github.com/coin-or/CppAD)
  ZLIB 1.2.11          General purpose compression library by J. Gailly and M. Adler (zlib.net)
  bliss 0.77           Computing Graph Automorphism Groups by T. Junttila and P. Kaski (www.tcs.hut.fi/Software/bliss/)

user parameter file <scip.set> not found - using default parameters

srr/relaxation = TRUE

read problem <instances/bin012_090_017.srr>
============

Original problem: 
original problem has 0 variables (0 bin, 0 int, 0 impl, 0 cont) and 77 constraints

presolving:
presolving (1 rounds: 1 fast, 1 medium, 1 exhaustive):
 0 deleted vars, 0 deleted constraints, 0 added constraints, 0 tightened bounds, 0 added holes, 0 changed sides, 0 changed coefficients
 0 implications, 0 cliques
presolved problem has 0 variables (0 bin, 0 int, 0 impl, 0 cont) and 77 constraints
     77 constraints of type <linear>
Presolving Time: 0.00

 time | node  | left  |LP iter|LP it/n|mem/heur|mdpt |vars |cons |rows |cuts |sepa|confs|strbr|  dualbound   | primalbound  |  gap   | compl. 
  0.0s|     1 |     0 |     1 |     - |   710k |   0 |   1 |  77 |  77 |   0 |  0 |   0 |   0 |      --      |      --      |    Inf | unknown
r 0.1s|     1 |     0 |  1194 |     - |simplero|   0 | 663 |  77 |  77 |   0 |  0 |   0 |   0 |      --      | 4.831506e+01 |    Inf | unknown
r 0.1s|     1 |     0 |  1246 |     - |simplero|   0 | 674 |  77 |  77 |   0 |  0 |   0 |   0 |      --      | 4.607058e+01 |    Inf | unknown
r 0.1s|     1 |     0 |  1267 |     - |simplero|   0 | 685 |  77 |  77 |   0 |  0 |   0 |   0 |      --      | 4.563542e+01 |    Inf | unknown
r 0.1s|     1 |     0 |  1292 |     - |simplero|   0 | 696 |  77 |  77 |   0 |  0 |   0 |   0 |      --      | 4.479412e+01 |    Inf | unknown
r 0.1s|     1 |     0 |  1358 |     - |simplero|   0 | 707 |  77 |  77 |   0 |  0 |   0 |   0 |      --      | 4.346423e+01 |    Inf | unknown
r 0.1s|     1 |     0 |  1393 |     - |simplero|   0 | 718 |  77 |  77 |   0 |  0 |   0 |   0 |      --      | 4.277087e+01 |    Inf | unknown
r 0.1s|     1 |     0 |  1435 |     - |simplero|   0 | 729 |  77 |  77 |   0 |  0 |   0 |   0 |      --      | 4.234090e+01 |    Inf | unknown
r 0.1s|     1 |     0 |  1507 |     - |simplero|   0 | 740 |  77 |  77 |   0 |  0 |   0 |   0 |      --      | 4.084722e+01 |    Inf | unknown
r 0.1s|     1 |     0 |  1542 |     - |simplero|   0 | 751 |  77 |  77 |   0 |  0 |   0 |   0 |      --      | 4.058918e+01 |    Inf | unknown
r 0.1s|     1 |     0 |  1563 |     - |simplero|   0 | 751 |  77 |  77 |   0 |  0 |   0 |   0 |      --      | 4.050581e+01 |    Inf | unknown
r 0.1s|     1 |     0 |  1567 |     - |simplero|   0 | 751 |  77 |  77 |   0 |  0 |   0 |   0 |      --      | 4.048500e+01 |    Inf | unknown
r 0.1s|     1 |     0 |  1613 |     - |simplero|   0 | 762 |  77 |  77 |   0 |  0 |   0 |   0 |      --      | 3.940125e+01 |    Inf | unknown
r 0.1s|     1 |     0 |  1641 |     - |simplero|   0 | 762 |  77 |  77 |   0 |  0 |   0 |   0 |      --      | 3.928687e+01 |    Inf | unknown
r 0.1s|     1 |     0 |  1646 |     - |simplero|   0 | 762 |  77 |  77 |   0 |  0 |   0 |   0 |      --      | 3.927506e+01 |    Inf | unknown
 time | node  | left  |LP iter|LP it/n|mem/heur|mdpt |vars |cons |rows |cuts |sepa|confs|strbr|  dualbound   | primalbound  |  gap   | compl. 
r 0.1s|     1 |     0 |  1691 |     - |simplero|   0 | 773 |  77 |  77 |   0 |  0 |   0 |   0 |      --      | 3.877468e+01 |    Inf | unknown
r 0.1s|     1 |     0 |  1734 |     - |simplero|   0 | 773 |  77 |  77 |   0 |  0 |   0 |   0 |      --      | 3.839867e+01 |    Inf | unknown
r 0.1s|     1 |     0 |  1746 |     - |simplero|   0 | 773 |  77 |  77 |   0 |  0 |   0 |   0 |      --      | 3.835772e+01 |    Inf | unknown
r 0.1s|     1 |     0 |  1748 |     - |simplero|   0 | 773 |  77 |  77 |   0 |  0 |   0 |   0 |      --      | 3.835660e+01 |    Inf | unknown
r 0.1s|     1 |     0 |  1797 |     - |simplero|   0 | 784 |  77 |  77 |   0 |  0 |   0 |   0 |      --      | 3.739712e+01 |    Inf | unknown
r 0.1s|     1 |     0 |  1823 |     - |simplero|   0 | 784 |  77 |  77 |   0 |  0 |   0 |   0 |      --      | 3.732247e+01 |    Inf | unknown
r 0.1s|     1 |     0 |  1828 |     - |simplero|   0 | 784 |  77 |  77 |   0 |  0 |   0 |   0 |      --      | 3.731461e+01 |    Inf | unknown
r 0.1s|     1 |     0 |  1883 |     - |simplero|   0 | 795 |  77 |  77 |   0 |  0 |   0 |   0 |      --      | 3.670946e+01 |    Inf | unknown
r 0.1s|     1 |     0 |  1886 |     - |simplero|   0 | 795 |  77 |  77 |   0 |  0 |   0 |   0 |      --      | 3.670689e+01 |    Inf | unknown
r 0.1s|     1 |     0 |  1889 |     - |simplero|   0 | 795 |  77 |  77 |   0 |  0 |   0 |   0 |      --      | 3.670424e+01 |    Inf | unknown
r 0.1s|     1 |     0 |  1918 |     - |simplero|   0 | 806 |  77 |  77 |   0 |  0 |   0 |   0 |      --      | 3.646391e+01 |    Inf | unknown
r 0.1s|     1 |     0 |  1932 |     - |simplero|   0 | 806 |  77 |  77 |   0 |  0 |   0 |   0 |      --      | 3.643134e+01 |    Inf | unknown
r 0.1s|     1 |     0 |  1971 |     - |simplero|   0 | 817 |  77 |  77 |   0 |  0 |   0 |   0 |      --      | 3.608166e+01 |    Inf | unknown
r 0.1s|     1 |     0 |  2005 |     - |simplero|   0 | 817 |  77 |  77 |   0 |  0 |   0 |   0 |      --      | 3.595314e+01 |    Inf | unknown
r 0.1s|     1 |     0 |  2008 |     - |simplero|   0 | 817 |  77 |  77 |   0 |  0 |   0 |   0 |      --      | 3.595273e+01 |    Inf | unknown
 time | node  | left  |LP iter|LP it/n|mem/heur|mdpt |vars |cons |rows |cuts |sepa|confs|strbr|  dualbound   | primalbound  |  gap   | compl. 
r 0.1s|     1 |     0 |  2054 |     - |simplero|   0 | 828 |  77 |  77 |   0 |  0 |   0 |   0 |      --      | 3.571668e+01 |    Inf | unknown
r 0.1s|     1 |     0 |  2084 |     - |simplero|   0 | 839 |  77 |  77 |   0 |  0 |   0 |   0 |      --      | 3.537735e+01 |    Inf | unknown
r 0.1s|     1 |     0 |  2093 |     - |simplero|   0 | 839 |  77 |  77 |   0 |  0 |   0 |   0 |      --      | 3.535987e+01 |    Inf | unknown
  0.1s|     1 |     0 |  2096 |     - |  4104k |   0 | 839 |  77 |  77 |   0 |  0 |   0 |   0 |      --      | 3.535987e+01 |    Inf | unknown
r 0.1s|     1 |     0 |  2132 |     - |simplero|   0 | 850 |  77 |  77 |   0 |  0 |   0 |   0 |      --      | 3.513260e+01 |    Inf | unknown
r 0.1s|     1 |     0 |  2137 |     - |simplero|   0 | 850 |  77 |  77 |   0 |  0 |   0 |   0 |      --      | 3.512554e+01 |    Inf | unknown
r 0.1s|     1 |     0 |  2168 |     - |simplero|   0 | 861 |  77 |  77 |   0 |  0 |   0 |   0 |      --      | 3.500000e+01 |    Inf | unknown
  0.1s|     1 |     0 |  2171 |     - |  4133k |   0 | 868 |  77 |  77 |   0 |  0 |   0 |   0 | 3.500000e+01 | 3.500000e+01 |   0.00%| unknown
  0.1s|     1 |     0 |  2171 |     - |  4133k |   0 | 868 |  77 |  77 |   0 |  0 |   0 |   0 | 3.500000e+01 | 3.500000e+01 |   0.00%| unknown

SCIP Status        : problem is solved [optimal solution found]
Solving Time (sec) : 0.09
Solving Nodes      : 1
Primal Bound       : +3.50000000000000e+01 (35 solutions)
Dual Bound         : +3.50000000000000e+01
Gap                : 0.00 %

written transformed problem to file <results_rootrelaxation/bin012_090_017.srr.lp>
written transformed problem to file <results_rootrelaxation/bin012_090_017.srr.cip>

written solution information to file <results_rootrelaxation/bin012_090_017.srr.sol>



